# Non-bonded interactions (lj/cut)
#		atom i    atom j    epsilon (kcal/mol)    sigma (Angstrom)
  pair_coeff       1        1          1.00000000            1.00000000
  pair_coeff       1        2          1.00000000            1.00000000
  pair_coeff       2        2          1.00000000            1.00000000

# Stretching interactions (harmonic)
#               bond type    K (kcal/mol/Angstrom^2)    r0 (Angstrom)
  bond_coeff       1                50.000000           0.44117647